NAME : S-U-4-3.2736.tour
COMMENT : Length = 2736
COMMENT : Found by LKH [Keld Helsgaun] Thu May 17 23:18:22 2018
TYPE : TOUR
DIMENSION : 31
TOUR_SECTION
1
30
16
14
11
28
18
9
4
10
3
27
26
23
25
5
8
12
13
20
22
24
31
19
21
17
2
6
7
15
29
-1
EOF
